SPARKNaCl/why3-cvc5/sparknacl-utils.adb_318_13_assert2_1.smt2
;; produced by cvc5.drv ;;
(set-logic ALL)
(set-info :smt-lib-version 2.6)
;;; generated by SMT-LIB2 driver
;;; SMT-LIB2 driver: bit-vectors, common part
;;; SMT-LIB2: integer arithmetic
(define-fun __cdiv ((x Int) (y Int)) Int (ite (>= x 0) (div x y) (- (div (- x) y))))
(define-fun __cmod ((x Int) (y Int)) Int (ite (>= x 0) (mod x y) (- (mod (- x) y))))
;; "mod"
(define-fun mod1 ((x Int) (y Int)) Int
  (ite (<= 0 y) (mod x y) (- (mod (- x) y))))

(declare-sort gf32_any_limb 0)

;; "gf32_any_limb'int"
(declare-fun gf32_any_limbqtint (gf32_any_limb) Int)

;; "gf32_any_limb'axiom"
(assert
  (forall ((i gf32_any_limb))
    (and
      (<= (- 65536) (gf32_any_limbqtint i))
      (<= (gf32_any_limbqtint i) 132051011))))

;; "in_range"
(define-fun in_range ((x Int)) Bool
  (and (<= (- 65536) x) (<= x 132051011)))

;; "to_rep"
(define-fun to_rep ((x gf32_any_limb)) Int
  (gf32_any_limbqtint x))

;; "of_rep"
(declare-fun of_rep (Int) gf32_any_limb)

;; "inversion_axiom"
(assert
  (forall ((x gf32_any_limb))
    (! (= (of_rep (to_rep x)) x) :pattern ((to_rep x)) )))

;; "range_axiom"
(assert
  (forall ((x gf32_any_limb))
    (! (in_range (to_rep x)) :pattern ((to_rep x)) )))

;; "coerce_axiom"
(assert
  (forall ((x Int))
    (! (=> (in_range x) (= (to_rep (of_rep x)) x)) :pattern ((to_rep
                                                               (of_rep x))) )))

(declare-sort map1 0)

;; "has_bounds"
(declare-fun has_bounds (map1
  Int
  Int) Bool)

;; "get"
(declare-fun get (map1
  Int) gf32_any_limb)

;; "set"
(declare-fun set (map1
  Int
  gf32_any_limb) map1)

;; "set_eq"
(assert
  (forall ((a map1) (i Int) (v gf32_any_limb))
    (! (= (get (set a i v) i) v) :pattern ((set a i v)) )))

;; "set_neq"
(assert
  (forall ((a map1) (i Int) (v gf32_any_limb))
    (! (forall ((j Int))
         (! (=> (not (= i j)) (= (get (set a i v) j) (get a j))) :pattern (
         (get
           a
           j)) :pattern ((get (set a i v) j)) )) :pattern ((set a i v)) )))

;; "set_has_bounds"
(assert
  (forall ((a map1) (i Int) (f Int) (l Int) (v gf32_any_limb))
    (! (=>
         (and (<= f i) (<= i l))
         (=> (has_bounds a f l) (has_bounds (set a i v) f l))) :pattern (
    (has_bounds
      (set a i v)
      f
      l)) )))

(declare-const t map1)

(declare-const gf32_0 map1)

;; "power"
(declare-fun power (Int
  Int) Int)

;; "Power_0"
(assert (forall ((x Int)) (= (power x 0) 1)))

;; "Power_s"
(assert
  (forall ((x Int) (n Int))
    (=> (<= 0 n) (= (power x (+ n 1)) (* x (power x n))))))

;; "Power_s_alt"
(assert
  (forall ((x Int) (n Int))
    (=> (< 0 n) (= (power x n) (* x (power x (- n 1)))))))

;; "Power_1"
(assert (forall ((x Int)) (= (power x 1) x)))

;; "Power_sum"
(assert
  (forall ((x Int) (n Int) (m Int))
    (=>
      (<= 0 n)
      (=> (<= 0 m) (= (power x (+ n m)) (* (power x n) (power x m)))))))

;; "Power_mult"
(assert
  (forall ((x Int) (n Int) (m Int))
    (=> (<= 0 n) (=> (<= 0 m) (= (power x (* n m)) (power (power x n) m))))))

;; "Power_comm1"
(assert
  (forall ((x Int) (y Int))
    (=>
      (= (* x y) (* y x))
      (forall ((n Int))
        (=> (<= 0 n) (= (* (power x n) y) (* y (power x n))))))))

;; "Power_comm2"
(assert
  (forall ((x Int) (y Int))
    (=>
      (= (* x y) (* y x))
      (forall ((n Int))
        (=> (<= 0 n) (= (power (* x y) n) (* (power x n) (power y n))))))))

;; "Power_non_neg"
(assert
  (forall ((x Int) (y Int)) (=> (and (<= 0 x) (<= 0 y)) (<= 0 (power x y)))))

;; "Power_pos"
(assert
  (forall ((x Int) (y Int)) (=> (and (< 0 x) (<= 0 y)) (< 0 (power x y)))))

;; "Power_monotonic"
(assert
  (forall ((x Int) (n Int) (m Int))
    (=> (and (< 0 x) (and (<= 0 n) (<= n m))) (<= (power x n) (power x m)))))

;; "shift_right_arithmetic"
(define-fun shift_right_arithmetic ((x Int) (n Int) (us Int)) Int
  (ite (< x 0) (- (__cdiv (+ x 1) (power 2 n)) 1) (__cdiv x (power 2 n))))

;; "in_range"
(define-fun in_range1 ((x Int)) Bool
  (and (<= (- 2147483648) x) (<= x 2147483647)))

;; "asr32_16"
(declare-fun asr32_16 (Int) Int)

;; "asr32_16__function_guard"
(declare-fun asr32_16__function_guard (Int
  Int) Bool)

;; "in_range"
(define-fun in_range2 ((x Int)) Bool
  (and (<= 0 x) (<= x 65535)))

;; "dynamic_invariant"
(define-fun dynamic_invariant ((temp___expr_547 map1) (temp___is_init_543 Bool) (temp___skip_constant_544 Bool) (temp___do_toplevel_545 Bool) (temp___do_typ_inv_546 Bool)) Bool
  (and
    (=>
      (= temp___is_init_543 true)
      (=>
        (= temp___do_toplevel_545 true)
        (forall ((i Int))
          (=>
            (and (<= 0 i) (<= i 15))
            (in_range2 (to_rep (get temp___expr_547 i)))))))
    (has_bounds temp___expr_547 0 15)))

;; "in_range"
(define-fun in_range3 ((x Int)) Bool
  (and (<= (- 65536) x) (<= x 65535)))

;; "dynamic_invariant"
(define-fun dynamic_invariant1 ((temp___expr_598 map1) (temp___is_init_594 Bool) (temp___skip_constant_595 Bool) (temp___do_toplevel_596 Bool) (temp___do_typ_inv_597 Bool)) Bool
  (and
    (=>
      (= temp___is_init_594 true)
      (=>
        (= temp___do_toplevel_596 true)
        (and
          (in_range3 (to_rep (get temp___expr_598 15)))
          (forall ((k Int))
            (=>
              (and (<= 0 k) (<= k 14))
              (in_range2 (to_rep (get temp___expr_598 k))))))))
    (has_bounds temp___expr_598 0 15)))

;; "in_range"
(define-fun in_range4 ((x Int)) Bool
  (and (<= 0 x) (<= x 1)))

;; "sparknacl__gf32_0__aggregate_def"
(declare-fun sparknacl__gf32_0__aggregate_def (Int) map1)

;; "gf32_0__def_axiom"
(assert
  (= gf32_0 (let ((temp___211qtunused (sparknacl__gf32_0__aggregate_def 0)))
              (sparknacl__gf32_0__aggregate_def 0))))

(declare-const rliteral gf32_any_limb)

;; "rliteral_axiom"
(assert (= (gf32_any_limbqtint rliteral) 0))

;; "def_axiom"
(assert
  (forall ((temp___207 Int))
    (let ((temp___208 (sparknacl__gf32_0__aggregate_def temp___207)))
      (and
        (has_bounds temp___208 0 15)
        (forall ((temp___209 Int))
          (! (=>
               (and (<= 0 temp___209) (<= temp___209 15))
               (= (get temp___208 temp___209) rliteral)) :pattern ((get
                                                                    temp___208
                                                                    temp___209)) ))))))

;; Goal "def'vc"
;; File "sparknacl-utils.adb", line 260, characters 0-0
(assert
  (not
  (forall ((result__ map1) (carry Int) (r map1))
    (=>
      (dynamic_invariant gf32_0 true false true true)
      (forall ((temp___1142 map1))
        (=>
          (and
            (and
              (has_bounds temp___1142 0 15)
              (forall ((temp___210 Int))
                (! (=>
                     (and (<= 0 temp___210) (<= temp___210 15))
                     (= (get temp___1142 temp___210) rliteral)) :pattern (
                (get
                  temp___1142
                  temp___210)) )))
            (= temp___1142 (sparknacl__gf32_0__aggregate_def 0)))
          (=>
            (= temp___1142 gf32_0)
            (=>
              (dynamic_invariant1 t true false true true)
              (=>
                (dynamic_invariant1 result__ false false true true)
                (=>
                  (<= (- 32768) (to_rep (get t 15)))
                  (=>
                    (in_range4 carry)
                    (=>
                      (has_bounds r 0 15)
                      (forall ((r1 map1))
                        (=>
                          (= r1 gf32_0)
                          (forall ((o Int))
                            (=>
                              (= (to_rep (get t 0)) o)
                              (let ((o1 (- o 65517)))
                                (=>
                                  (in_range o1)
                                  (forall ((o2 gf32_any_limb))
                                    (=>
                                      (= (to_rep o2) o1)
                                      (forall ((r2 map1))
                                        (=>
                                          (= r2 (set r1 0 o2))
                                          (forall ((carry1 Int) (r3 map1))
                                            (=>
                                              (exists ((i Int))
                                                (and
                                                  (= i 1)
                                                  (ite (= (and (ite (<= 1 i)
                                                                 true
                                                                 false) 
                                                    (ite (<= i 14)
                                                      true
                                                      false)) true)
                                                    (exists ((o3 Int))
                                                      (and
                                                        (= (to_rep
                                                             (get r2 (- i 1))) o3)
                                                        (let ((o4 (asr32_16
                                                                    o3)))
                                                          (and
                                                            (and
                                                              (asr32_16__function_guard
                                                                o4
                                                                o3)
                                                              (and
                                                                (in_range1
                                                                  o4)
                                                                (and
                                                                  (= o4 
                                                                  (shift_right_arithmetic
                                                                    o3
                                                                    16
                                                                    32))
                                                                  (ite (<= 0 o3)
                                                                    (= o4 (__cdiv o3 65536))
                                                                    (= o4 (- (__cdiv (+ o3 1) 65536) 1))))))
                                                            (exists ((carry2 Int))
                                                              (and
                                                                (= carry2 
                                                                (mod1
                                                                  o4
                                                                  2))
                                                                (exists 
                                                                  ((o5 Int))
                                                                  (and
                                                                    (= 
                                                                    (to_rep
                                                                    (get t i)) o5)
                                                                    (let ((o6 (- (- o5 65535) carry2)))
                                                                    (and
                                                                    (in_range
                                                                    o6)
                                                                    (exists 
                                                                    ((o7 gf32_any_limb))
                                                                    (and
                                                                    (= 
                                                                    (to_rep
                                                                    o7) o6)
                                                                    (exists 
                                                                    ((r4 map1))
                                                                    (and
                                                                    (= r4 
                                                                    (set
                                                                    r2
                                                                    i
                                                                    o7))
                                                                    (exists 
                                                                    ((o8 Int))
                                                                    (and
                                                                    (= 
                                                                    (to_rep
                                                                    (get
                                                                    r4
                                                                    (- i 1))) o8)
                                                                    (exists 
                                                                    ((o9 gf32_any_limb))
                                                                    (and
                                                                    (= 
                                                                    (to_rep
                                                                    o9) 
                                                                    (mod1
                                                                    o8
                                                                    65536))
                                                                    (exists 
                                                                    ((r5 map1))
                                                                    (and
                                                                    (= r5 
                                                                    (set
                                                                    r4
                                                                    (- i 1)
                                                                    o9))
                                                                    (exists 
                                                                    ((i1 Int))
                                                                    (and
                                                                    (forall 
                                                                    ((j Int))
                                                                    (=>
                                                                    (and
                                                                    (<= 0 j)
                                                                    (<= j (- i1 1)))
                                                                    (in_range2
                                                                    (to_rep
                                                                    (get
                                                                    r3
                                                                    j)))))
                                                                    (and
                                                                    (= (and 
                                                                    (ite 
                                                                    (and
                                                                    (in_range4
                                                                    carry1)
                                                                    (has_bounds
                                                                    r3
                                                                    0
                                                                    15))
                                                                    true
                                                                    false) 
                                                                    (ite 
                                                                    (and
                                                                    (<= 1 i1)
                                                                    (<= i1 14))
                                                                    true
                                                                    false)) true)
                                                                    (= i1 14))))))))))))))))))))))))
                                                    (and
                                                      (= carry1 carry)
                                                      (= r3 r2)))))
                                              (=>
                                                (forall ((j Int))
                                                  (=>
                                                    (and (<= 0 j) (<= j 13))
                                                    (in_range2
                                                      (to_rep (get r3 j)))))
                                                (forall ((o3 Int))
                                                  (=>
                                                    (= (to_rep (get r3 14)) o3)
                                                    (let ((o4 (asr32_16 o3)))
                                                      (=>
                                                        (and
                                                          (asr32_16__function_guard
                                                            o4
                                                            o3)
                                                          (and
                                                            (in_range1 o4)
                                                            (and
                                                              (= o4 (shift_right_arithmetic
                                                                    o3
                                                                    16
                                                                    32))
                                                              (ite (<= 0 o3)
                                                                (= o4 (__cdiv o3 65536))
                                                                (= o4 (- (__cdiv (+ o3 1) 65536) 1))))))
                                                        (forall ((carry2 Int))
                                                          (=>
                                                            (= carry2 
                                                            (mod1
                                                              o4
                                                              2))
                                                            (forall ((o5 Int))
                                                              (=>
                                                                (= (to_rep
                                                                    (get
                                                                    t
                                                                    15)) o5)
                                                                (let ((o6 (- (- o5 32767) carry2)))
                                                                  (=>
                                                                    (in_range
                                                                    o6)
                                                                    (forall 
                                                                    ((o7 gf32_any_limb))
                                                                    (=>
                                                                    (= 
                                                                    (to_rep
                                                                    o7) o6)
                                                                    (forall 
                                                                    ((r4 map1))
                                                                    (=>
                                                                    (= r4 
                                                                    (set
                                                                    r3
                                                                    15
                                                                    o7))
                                                                    (forall 
                                                                    ((o8 Int))
                                                                    (=>
                                                                    (= 
                                                                    (to_rep
                                                                    (get
                                                                    r4
                                                                    14)) o8)
                                                                    (forall 
                                                                    ((o9 gf32_any_limb))
                                                                    (=>
                                                                    (= 
                                                                    (to_rep
                                                                    o9) 
                                                                    (mod1
                                                                    o8
                                                                    65536))
                                                                    (forall 
                                                                    ((r5 map1))
                                                                    (=>
                                                                    (= r5 
                                                                    (set
                                                                    r4
                                                                    14
                                                                    o9))
                                                                    (forall 
                                                                    ((j Int))
                                                                    (=>
                                                                    (and
                                                                    (<= 0 j)
                                                                    (<= j 14))
                                                                    (<= 
                                                                    (to_rep
                                                                    (get
                                                                    r5
                                                                    j)) 65535))))))))))))))))))))))))))))))))))))))))))))))))

(check-sat)
